\ Model Growth_Rate_Model
\ LP format - for model browsing. Use MPS format to capture full model detail.
Maximize
  alpha
Subject To
 y[0]: 15 x[7] + 85 x[13] + 17 x[18] + 99 x[19] - a[0] >= 0
 y[1]: 20 x[0] + 62 x[9] + 93 x[16] - a[1] >= 0
 y[2]: x[2] + 52 x[3] + 57 x[9] + 79 x[12] + 35 x[13] + 39 x[15] + 10 x[16]
   + 31 x[17] + 53 x[19] - a[2] >= 0
 y[3]: 91 x[8] + 94 x[17] + 62 x[18] - a[3] >= 0
 y[4]: 30 x[1] + 36 x[2] + 68 x[7] + 35 x[8] + 67 x[12] + 83 x[19] - a[4]
   >= 0
 y[5]: 30 x[2] + 47 x[11] + 40 x[14] + 68 x[16] - a[5] >= 0
 y[6]: 17 x[8] + 7 x[16] + 90 x[19] - a[6] >= 0
 y[7]: 75 x[3] + 79 x[10] + 67 x[11] - a[7] >= 0
 y[8]: 19 x[0] + 88 x[11] + 85 x[18] + x[19] - a[8] >= 0
 y[9]: 44 x[8] + 57 x[9] + 49 x[14] + 40 x[15] - a[9] >= 0
 y[10]: 37 x[4] + 96 x[9] + 92 x[10] + 15 x[18] - a[10] >= 0
 y[11]: 10 x[3] + 97 x[11] + 73 x[16] + 40 x[17] - a[11] >= 0
 y[12]: 72 x[5] + 96 x[18] - a[12] >= 0
 y[13]: 55 x[1] + 43 x[11] + 10 x[16] + 21 x[19] - a[13] >= 0
 y[14]: 65 x[0] + 51 x[1] + 2 x[2] + 61 x[12] + 36 x[13] - a[14] >= 0
 y[15]: 37 x[6] + 8 x[9] + 94 x[10] + 58 x[14] - a[15] >= 0
 y[16]: 88 x[0] + 63 x[1] + 52 x[7] + 31 x[10] + 28 x[15] - a[16] >= 0
 y[17]: 43 x[4] + 35 x[5] + 32 x[11] - a[17] >= 0
 y[18]: 43 x[0] + 9 x[4] + 13 x[7] + 62 x[9] + 87 x[16] - a[18] >= 0
 y[19]: 74 x[0] + 97 x[1] + 30 x[3] + 50 x[5] + 81 x[10] + 17 x[12]
   + 87 x[19] - a[19] >= 0
 y[20]: 42 x[3] + 61 x[8] - a[20] >= 0
 y[21]: 39 x[0] + 85 x[1] + 84 x[5] + 10 x[14] + 75 x[15] + 81 x[17]
   - a[21] >= 0
 y[22]: 7 x[11] - a[22] >= 0
 y[23]: 52 x[5] + 15 x[6] + 14 x[7] + 48 x[8] + 89 x[16] + 91 x[18]
   + 60 x[19] - a[23] >= 0
 y[24]: 55 x[0] + 79 x[4] + 58 x[5] + 92 x[7] - a[24] >= 0
 y[25]: 96 x[3] + 21 x[5] + 11 x[15] + 73 x[19] - a[25] >= 0
 y[26]: 42 x[2] + 30 x[4] + 71 x[10] - a[26] >= 0
 y[27]: 18 x[1] + 97 x[5] + 12 x[17] - a[27] >= 0
 y[28]: 49 x[3] + 59 x[4] + 11 x[7] - a[28] >= 0
 y[29]: 79 x[4] + x[11] - a[29] >= 0
 y[30]: 89 x[9] + 70 x[14] + 30 x[16] - a[30] >= 0
 y[31]: 89 x[1] + 67 x[15] - a[31] >= 0
 y[32]: 63 x[4] + 39 x[6] + 43 x[19] - a[32] >= 0
 y[33]: 21 x[0] + 26 x[2] + 57 x[14] + 78 x[19] - a[33] >= 0
 y[34]: 76 x[2] + 34 x[5] + 93 x[6] + 57 x[8] + 35 x[10] - a[34] >= 0
 y[35]: 77 x[2] + 82 x[7] + 84 x[11] - a[35] >= 0
 y[36]: 8 x[8] + 94 x[10] + 57 x[12] + 84 x[13] - a[36] >= 0
 y[37]: 87 x[10] + 83 x[11] - a[37] >= 0
 y[38]: 4 x[0] + 67 x[2] + 67 x[9] + 48 x[10] + 86 x[15] + 8 x[16]
   + 8 x[17] + 22 x[18] - a[38] >= 0
 y[39]: 57 x[0] + 66 x[4] + 92 x[11] + 21 x[13] - a[39] >= 0
 suma: a[0] + a[1] + a[2] + a[3] + a[4] + a[5] + a[6] + a[7] + a[8] + a[9]
   + a[10] + a[11] + a[12] + a[13] + a[14] + a[15] + a[16] + a[17] + a[18]
   + a[19] + a[20] + a[21] + a[22] + a[23] + a[24] + a[25] + a[26] + a[27]
   + a[28] + a[29] + a[30] + a[31] + a[32] + a[33] + a[34] + a[35] + a[36]
   + a[37] + a[38] + a[39] >= 2
 aut_1[0]: a[1] + a[8] + a[14] + a[16] + a[18] + a[19] + a[21] + a[24]
   + a[33] + a[38] + a[39] >= 1
 aut_2[0]: a[0] + a[5] + a[6] + a[7] + a[23] + a[26] + a[31] + a[35] >= 1
 aut_1[1]: a[4] + a[13] + a[14] + a[16] + a[19] + a[21] + a[27] + a[31]
   >= 1
 aut_2[1]: a[6] + a[11] + a[17] + a[30] + a[34] + a[35] >= 1
 aut_1[2]: a[2] + a[4] + a[5] + a[14] + a[26] + a[33] + a[34] + a[35]
   + a[38] >= 1
 aut_2[2]: a[1] + a[17] + a[18] + a[27] + a[30] + a[31] >= 1
 aut_1[3]: a[2] + a[7] + a[11] + a[19] + a[20] + a[25] + a[28] >= 1
 aut_2[3]: a[3] + a[4] + a[24] + a[26] + a[29] + a[32] >= 1
 aut_1[4]: a[10] + a[17] + a[18] + a[24] + a[26] + a[28] + a[29] + a[32]
   + a[39] >= 1
 aut_2[4]: a[8] + a[13] + a[15] + a[23] + a[31] + a[34] >= 1
 aut_1[5]: a[12] + a[17] + a[19] + a[21] + a[23] + a[24] + a[25] + a[27]
   + a[34] >= 1
 aut_2[5]: a[7] + a[8] + a[16] + a[18] + a[32] + a[33] + a[35] >= 1
 aut_1[6]: a[15] + a[23] + a[32] + a[34] >= 1
 aut_2[6]: a[4] + a[7] + a[11] + a[12] + a[13] + a[17] + a[19] + a[26]
   + a[29] + a[30] + a[31] >= 1
 aut_1[7]: a[0] + a[4] + a[16] + a[18] + a[23] + a[24] + a[28] + a[35]
   >= 1
 aut_2[7]: a[3] + a[9] + a[15] + a[25] + a[32] + a[34] + a[36] >= 1
 aut_1[8]: a[3] + a[4] + a[6] + a[9] + a[20] + a[23] + a[34] + a[36] >= 1
 aut_2[8]: a[8] + a[10] + a[11] + a[19] + a[24] + a[26] + a[33] + a[37]
   >= 1
 aut_1[9]: a[1] + a[2] + a[9] + a[10] + a[15] + a[18] + a[30] + a[38] >= 1
 aut_2[9]: a[5] + a[6] + a[8] + a[16] + a[17] + a[19] + a[22] + a[27]
   + a[28] + a[31] + a[36] >= 1
 aut_1[10]: a[7] + a[10] + a[15] + a[16] + a[19] + a[26] + a[34] + a[36]
   + a[37] + a[38] >= 1
 aut_2[10]: a[2] + a[12] + a[20] + a[29] + a[35] >= 1
 aut_1[11]: a[5] + a[7] + a[8] + a[11] + a[13] + a[17] + a[22] + a[29]
   + a[35] + a[37] + a[39] >= 1
 aut_2[11]: a[1] + a[9] + a[14] + a[16] + a[21] + a[25] + a[36] + a[38]
   >= 1
 aut_1[12]: a[2] + a[4] + a[14] + a[19] + a[36] >= 1
 aut_2[12]: a[1] + a[3] + a[6] + a[9] + a[15] + a[23] + a[27] + a[37] >= 1
 aut_1[13]: a[0] + a[2] + a[14] + a[36] + a[39] >= 1
 aut_2[13]: a[5] + a[6] + a[8] + a[17] + a[31] + a[38] >= 1
 aut_1[14]: a[5] + a[9] + a[15] + a[21] + a[30] + a[33] >= 1
 aut_2[14]: a[7] + a[8] + a[13] + a[23] + a[26] + a[28] + a[31] + a[35]
   + a[37] >= 1
 aut_1[15]: a[2] + a[9] + a[16] + a[21] + a[25] + a[31] + a[38] >= 1
 aut_2[15]: a[8] + a[11] + a[12] + a[17] + a[20] + a[26] + a[36] + a[37]
   >= 1
 aut_1[16]: a[1] + a[2] + a[5] + a[6] + a[11] + a[13] + a[18] + a[23]
   + a[30] + a[38] >= 1
 aut_2[16]: a[9] + a[10] + a[12] + a[21] + a[24] + a[26] + a[27] + a[31]
   + a[35] + a[39] >= 1
 aut_1[17]: a[2] + a[3] + a[11] + a[21] + a[27] + a[38] >= 1
 aut_2[17]: a[0] + a[10] + a[19] + a[26] + a[29] + a[31] + a[34] + a[36]
   + a[39] >= 1
 aut_1[18]: a[0] + a[3] + a[8] + a[10] + a[12] + a[23] + a[38] >= 1
 aut_2[18]: a[4] + a[5] + a[13] + a[15] + a[16] + a[18] + a[19] + a[20]
   + a[24] + a[26] + a[27] + a[32] + a[37] + a[39] >= 1
 aut_1[19]: a[0] + a[2] + a[4] + a[6] + a[8] + a[13] + a[19] + a[23]
   + a[25] + a[32] + a[33] >= 1
 aut_2[19]: a[9] + a[16] + a[18] + a[27] + a[31] + a[35] + a[39] >= 1
 x[0]: - 37 x[0] - 89 x[17] + alpha + [ 218.1661242614691 x[7] * a[0]
   + 1236.274704148325 x[13] * a[0] + 247.254940829665 x[18] * a[0]
   + 1439.896420125696 x[19] * a[0] ] <= 0
 x[1]: - 35 x[2] - 95 x[11] - 82 x[12] + alpha + [
   290.8881656819588 x[0] * a[1] + 901.7533136140723 x[9] * a[1]
   + 1352.629970421109 x[16] * a[1] ] <= 0
 x[2]: - 16 x[10] + alpha + [ 14.54440828409794 x[2] * a[2]
   + 756.3092307730928 x[3] * a[2] + 829.0312721935826 x[9] * a[2]
   + 1149.008254443737 x[12] * a[2] + 509.0542899434279 x[13] * a[2]
   + 567.2319230798197 x[15] * a[2] + 145.4440828409794 x[16] * a[2]
   + 450.8766568070362 x[17] * a[2] + 770.8536390571909 x[19] * a[2] ]
   <= 0
 x[3]: - 34 x[3] - 24 x[7] - 44 x[12] + alpha + [
   1323.541153852913 x[8] * a[3] + 1367.174378705206 x[17] * a[3]
   + 901.7533136140723 x[18] * a[3] ] <= 0
 x[4]: - 89 x[3] - 69 x[6] - 86 x[18] + alpha + [
   436.3322485229382 x[1] * a[4] + 523.5986982275258 x[2] * a[4]
   + 989.0197633186599 x[7] * a[4] + 509.0542899434279 x[8] * a[4]
   + 974.475355034562 x[12] * a[4] + 1207.185887580129 x[19] * a[4] ] <= 0
 x[5]: - 20 x[0] - 43 x[9] - 8 x[13] - 70 x[18] + alpha + [
   436.3322485229382 x[2] * a[5] + 683.5871893526032 x[11] * a[5]
   + 581.7763313639176 x[14] * a[5] + 989.0197633186599 x[16] * a[5] ]
   <= 0
 x[6]: - 39 x[0] - 5 x[1] - 63 x[9] - 66 x[12] - 96 x[13] + alpha + [
   247.254940829665 x[8] * a[6] + 101.8108579886856 x[16] * a[6]
   + 1308.996745568815 x[19] * a[6] ] <= 0
 x[7]: - 65 x[0] - 93 x[5] - 46 x[6] - 73 x[14] + alpha + [
   1090.830621307346 x[3] * a[7] + 1149.008254443737 x[10] * a[7]
   + 974.475355034562 x[11] * a[7] ] <= 0
 x[8]: - 96 x[4] - 14 x[5] - 60 x[8] - 62 x[9] - 5 x[13] - 44 x[14]
   - 36 x[15] + alpha + [ 276.3437573978609 x[0] * a[8]
   + 1279.907929000619 x[11] * a[8] + 1236.274704148325 x[18] * a[8]
   + 14.54440828409794 x[19] * a[8] ] <= 0
 x[9]: - 67 x[7] - 72 x[11] - 30 x[12] - 47 x[16] - 95 x[19] + alpha + [
   639.9539645003094 x[8] * a[9] + 829.0312721935826 x[9] * a[9]
   + 712.6760059207991 x[14] * a[9] + 581.7763313639176 x[15] * a[9] ]
   <= 0
 x[10]: - 40 x[8] - 2 x[16] - 31 x[17] + alpha + [
   538.1431065116238 x[4] * a[10] + 1396.263195273402 x[9] * a[10]
   + 1338.085562137011 x[10] * a[10] + 218.1661242614691 x[18] * a[10] ]
   <= 0
 x[11]: - 24 x[1] - 98 x[6] - 78 x[8] - 44 x[15] + alpha + [
   145.4440828409794 x[3] * a[11] + 1410.8076035575 x[11] * a[11]
   + 1061.74180473915 x[16] * a[11] + 581.7763313639176 x[17] * a[11] ]
   <= 0
 x[12]: - 69 x[6] - 78 x[10] - 69 x[15] - 77 x[16] + alpha + [
   1047.197396455052 x[5] * a[12] + 1396.263195273402 x[18] * a[12] ] <= 0
 x[13]: - 96 x[4] - 83 x[6] - x[14] - 75 x[18] + alpha + [
   799.9424556253867 x[1] * a[13] + 625.4095562162114 x[11] * a[13]
   + 145.4440828409794 x[16] * a[13] + 305.4325739660567 x[19] * a[13] ]
   <= 0
 x[14]: - 4 x[11] + alpha + [ 945.3865384663661 x[0] * a[14]
   + 741.7648224889949 x[1] * a[14] + 29.08881656819588 x[2] * a[14]
   + 887.2089053299744 x[12] * a[14] + 523.5986982275258 x[13] * a[14] ]
   <= 0
 x[15]: - 99 x[4] - 88 x[7] - 46 x[12] - 59 x[18] + alpha + [
   538.1431065116238 x[6] * a[15] + 116.3552662727835 x[9] * a[15]
   + 1367.174378705206 x[10] * a[15] + 843.5756804776805 x[14] * a[15] ]
   <= 0
 x[16]: - x[5] - 32 x[9] - 59 x[11] - 47 x[18] - 12 x[19] + alpha + [
   1279.907929000619 x[0] * a[16] + 916.2977218981703 x[1] * a[16]
   + 756.3092307730928 x[7] * a[16] + 450.8766568070362 x[10] * a[16]
   + 407.2434319547423 x[15] * a[16] ] <= 0
 x[17]: - 85 x[1] - 88 x[2] - 49 x[6] - 37 x[9] - 27 x[13] - 65 x[15]
   + alpha + [ 625.4095562162114 x[4] * a[17]
   + 509.0542899434279 x[5] * a[17] + 465.4210650911341 x[11] * a[17] ]
   <= 0
 x[18]: - 39 x[2] - 7 x[5] - 96 x[18] - 26 x[19] + alpha + [
   625.4095562162114 x[0] * a[18] + 130.8996745568815 x[4] * a[18]
   + 189.0773076932732 x[7] * a[18] + 901.7533136140723 x[9] * a[18]
   + 1265.363520716521 x[16] * a[18] ] <= 0
 x[19]: - 54 x[6] - 44 x[8] - 49 x[9] - 18 x[17] - 64 x[18] + alpha + [
   1076.286213023248 x[0] * a[19] + 1410.8076035575 x[1] * a[19]
   + 436.3322485229382 x[3] * a[19] + 727.220414204897 x[5] * a[19]
   + 1178.097071011933 x[10] * a[19] + 247.254940829665 x[12] * a[19]
   + 1265.363520716521 x[19] * a[19] ] <= 0
 x[20]: - 65 x[10] - 46 x[15] - 54 x[18] + alpha + [
   610.8651479321135 x[3] * a[20] + 887.2089053299744 x[8] * a[20] ] <= 0
 x[21]: - 62 x[11] - 42 x[16] + alpha + [ 567.2319230798197 x[0] * a[21]
   + 1236.274704148325 x[1] * a[21] + 1221.730295864227 x[5] * a[21]
   + 145.4440828409794 x[14] * a[21] + 1090.830621307346 x[15] * a[21]
   + 1178.097071011933 x[17] * a[21] ] <= 0
 x[22]: - 9 x[9] + alpha + [ 101.8108579886856 x[11] * a[22] ] <= 0
 x[23]: - 21 x[0] - 12 x[4] - 51 x[12] - 54 x[14] + alpha + [
   756.3092307730928 x[5] * a[23] + 218.1661242614691 x[6] * a[23]
   + 203.6217159773712 x[7] * a[23] + 698.1315976367011 x[8] * a[23]
   + 1294.452337284717 x[16] * a[23] + 1323.541153852913 x[18] * a[23]
   + 872.6644970458765 x[19] * a[23] ] <= 0
 x[24]: - 31 x[3] - 3 x[8] - 56 x[16] - 89 x[18] + alpha + [
   799.9424556253867 x[0] * a[24] + 1149.008254443737 x[4] * a[24]
   + 843.5756804776805 x[5] * a[24] + 1338.085562137011 x[7] * a[24] ]
   <= 0
 x[25]: - 10 x[7] - 73 x[11] + alpha + [ 1396.263195273402 x[3] * a[25]
   + 305.4325739660567 x[5] * a[25] + 159.9884911250774 x[15] * a[25]
   + 1061.74180473915 x[19] * a[25] ] <= 0
 x[26]: - 19 x[0] - 95 x[3] - 20 x[6] - 89 x[8] - 82 x[14] - 60 x[15]
   - 61 x[16] - 69 x[17] - 13 x[18] + alpha + [
   610.8651479321135 x[2] * a[26] + 436.3322485229382 x[4] * a[26]
   + 1032.652988170954 x[10] * a[26] ] <= 0
 x[27]: - 50 x[2] - 99 x[9] - 47 x[12] - 64 x[16] - 18 x[18] - 97 x[19]
   + alpha + [ 261.7993491137629 x[1] * a[27]
   + 1410.8076035575 x[5] * a[27] + 174.5328994091753 x[17] * a[27] ] <= 0
 x[28]: - 54 x[9] - 31 x[14] + alpha + [ 712.6760059207991 x[3] * a[28]
   + 858.1200887617784 x[4] * a[28] + 159.9884911250774 x[7] * a[28] ]
   <= 0
 x[29]: - 54 x[3] - 22 x[6] - 35 x[10] - 64 x[17] + alpha + [
   1149.008254443737 x[4] * a[29] + 14.54440828409794 x[11] * a[29] ] <= 0
 x[30]: - 78 x[1] - 6 x[2] - 28 x[6] + alpha + [
   1294.452337284717 x[9] * a[30] + 1018.108579886856 x[14] * a[30]
   + 436.3322485229382 x[16] * a[30] ] <= 0
 x[31]: - 10 x[0] - 42 x[2] - 92 x[4] - 17 x[6] - 73 x[9] - 52 x[13]
   - 99 x[14] - 89 x[16] - 23 x[17] - 26 x[19] + alpha + [
   1294.452337284717 x[1] * a[31] + 974.475355034562 x[15] * a[31] ] <= 0
 x[32]: - 72 x[3] - 44 x[5] - 98 x[7] - 74 x[18] + alpha + [
   916.2977218981703 x[4] * a[32] + 567.2319230798197 x[6] * a[32]
   + 625.4095562162114 x[19] * a[32] ] <= 0
 x[33]: - 50 x[5] - 45 x[8] + alpha + [ 305.4325739660567 x[0] * a[33]
   + 378.1546153865464 x[2] * a[33] + 829.0312721935826 x[14] * a[33]
   + 1134.463846159639 x[19] * a[33] ] <= 0
 x[34]: - 54 x[1] - 17 x[4] - 19 x[7] - 61 x[17] + alpha + [
   1105.375029591444 x[2] * a[34] + 494.5098816593299 x[5] * a[34]
   + 1352.629970421109 x[6] * a[34] + 829.0312721935826 x[8] * a[34]
   + 509.0542899434279 x[10] * a[34] ] <= 0
 x[35]: - 24 x[0] - 95 x[1] - 83 x[5] - 43 x[10] - 18 x[14] - 2 x[16]
   - 83 x[19] + alpha + [ 1119.919437875541 x[2] * a[35]
   + 1192.641479296031 x[7] * a[35] + 1221.730295864227 x[11] * a[35] ]
   <= 0
 x[36]: - 5 x[7] - 30 x[9] - 41 x[11] - 49 x[15] - 91 x[17] + alpha + [
   116.3552662727835 x[8] * a[36] + 1367.174378705206 x[10] * a[36]
   + 829.0312721935826 x[12] * a[36] + 1221.730295864227 x[13] * a[36] ]
   <= 0
 x[37]: - 96 x[8] - 96 x[12] - 96 x[14] - 90 x[15] - 39 x[18] + alpha + [
   1265.363520716521 x[10] * a[37] + 1207.185887580129 x[11] * a[37] ]
   <= 0
 x[38]: - 84 x[11] - 83 x[13] + alpha + [ 58.17763313639176 x[0] * a[38]
   + 974.475355034562 x[2] * a[38] + 974.475355034562 x[9] * a[38]
   + 698.1315976367011 x[10] * a[38] + 1250.819112432423 x[15] * a[38]
   + 116.3552662727835 x[16] * a[38] + 116.3552662727835 x[17] * a[38]
   + 319.9769822501547 x[18] * a[38] ] <= 0
 x[39]: - 82 x[16] - 44 x[17] - 85 x[18] - 56 x[19] + alpha + [
   829.0312721935826 x[0] * a[39] + 959.930946750464 x[4] * a[39]
   + 1338.085562137011 x[11] * a[39] + 305.4325739660567 x[13] * a[39] ]
   <= 0
Bounds
 1 <= x[0] <= 1000
 1 <= x[1] <= 1000
 1 <= x[2] <= 1000
 1 <= x[3] <= 1000
 1 <= x[4] <= 1000
 1 <= x[5] <= 1000
 1 <= x[6] <= 1000
 1 <= x[7] <= 1000
 1 <= x[8] <= 1000
 1 <= x[9] <= 1000
 1 <= x[10] <= 1000
 1 <= x[11] <= 1000
 1 <= x[12] <= 1000
 1 <= x[13] <= 1000
 1 <= x[14] <= 1000
 1 <= x[15] <= 1000
 1 <= x[16] <= 1000
 1 <= x[17] <= 1000
 1 <= x[18] <= 1000
 1 <= x[19] <= 1000
Binaries
 a[0] a[1] a[2] a[3] a[4] a[5] a[6] a[7] a[8] a[9] a[10] a[11] a[12] a[13]
 a[14] a[15] a[16] a[17] a[18] a[19] a[20] a[21] a[22] a[23] a[24] a[25]
 a[26] a[27] a[28] a[29] a[30] a[31] a[32] a[33] a[34] a[35] a[36] a[37]
 a[38] a[39]
End
